data;

param n   := 6;
param n_d := 4;

set A := (1,2) (1,4) (1,3) (1,5) (2,3) (2,4) (3,5) (3,6) (4,5) (4,6) (5,6) (5,2);

param : s t d :=
1  1 6 3
2  1 4 4
3  5 6 3
4  1 5 5;

param: c u:=
1 2 10 4
1 3 6 4
1 4 10 4
1 5 10 4
2 3 4 4
2 4 4 4
3 5 6 4
3 6 4 4
4 5 4 4
4 6 6 4
5 6 10 4
5 2 4 4;

param n_p := 7;
set Path[1] := (1,2) (2,4) (4,6);
set Path[2] := (1,4);
set Path[3] := (5,2) (2,4) (4,6);
set Path[4] := (5,6);
set Path[5] := (1,2) (2,3) (3,5);
set Path[6] := (1,5);
set Path[7] := (1,2) (2,4);

param or :=
1 1 
2 1 
3 5 
4 5 
5 1 
6 1 
7 1;

param dest :=
1  6
2  4
3  6
4  6
5  5
6  5
7  4;


